src/ARITHMETIC/ACCUMULATOR/formal/config_prove/model/design_smt2.smt2
; SMT-LIBv2 description generated by Yosys 0.9+3675 (git sha1 71ca9a8253, g++ 9.3.0 -fPIC -Os)
; yosys-smt2-module mkAccumulator_formal
(declare-sort |mkAccumulator_formal_s| 0)
(declare-fun |mkAccumulator_formal_is| (|mkAccumulator_formal_s|) Bool)
(declare-fun |mkAccumulator_formal#0| (|mkAccumulator_formal_s|) (_ BitVec 32)) ; \acc_total
; yosys-smt2-output o_SUM 32
; yosys-smt2-wire o_SUM 32
(define-fun |mkAccumulator_formal_n o_SUM| ((state |mkAccumulator_formal_s|)) (_ BitVec 32) (|mkAccumulator_formal#0| state))
(declare-fun |mkAccumulator_formal#1| (|mkAccumulator_formal_s|) Bool) ; \i_RESET_N
; yosys-smt2-input i_RESET_N 1
; yosys-smt2-wire i_RESET_N 1
(define-fun |mkAccumulator_formal_n i_RESET_N| ((state |mkAccumulator_formal_s|)) Bool (|mkAccumulator_formal#1| state))
(declare-fun |mkAccumulator_formal#2| (|mkAccumulator_formal_s|) Bool) ; \i_ENABLE
; yosys-smt2-input i_ENABLE 1
; yosys-smt2-wire i_ENABLE 1
(define-fun |mkAccumulator_formal_n i_ENABLE| ((state |mkAccumulator_formal_s|)) Bool (|mkAccumulator_formal#2| state))
(declare-fun |mkAccumulator_formal#3| (|mkAccumulator_formal_s|) (_ BitVec 32)) ; \i_DATA_IN
; yosys-smt2-input i_DATA_IN 32
; yosys-smt2-wire i_DATA_IN 32
(define-fun |mkAccumulator_formal_n i_DATA_IN| ((state |mkAccumulator_formal_s|)) (_ BitVec 32) (|mkAccumulator_formal#3| state))
(declare-fun |mkAccumulator_formal#4| (|mkAccumulator_formal_s|) Bool) ; \i_CLK
; yosys-smt2-input i_CLK 1
; yosys-smt2-wire i_CLK 1
(define-fun |mkAccumulator_formal_n i_CLK| ((state |mkAccumulator_formal_s|)) Bool (|mkAccumulator_formal#4| state))
(declare-fun |mkAccumulator_formal#5| (|mkAccumulator_formal_s|) (_ BitVec 1)) ; \f_past_valid
; yosys-smt2-register f_past_valid 1
; yosys-smt2-wire f_past_valid 1
(define-fun |mkAccumulator_formal_n f_past_valid| ((state |mkAccumulator_formal_s|)) Bool (= ((_ extract 0 0) (|mkAccumulator_formal#5| state)) #b1))
; yosys-smt2-wire acc_total$EN 1
(define-fun |mkAccumulator_formal_n acc_total$EN| ((state |mkAccumulator_formal_s|)) Bool (|mkAccumulator_formal#2| state))
(define-fun |mkAccumulator_formal#6| ((state |mkAccumulator_formal_s|)) (_ BitVec 32) (bvadd (|mkAccumulator_formal#0| state) (|mkAccumulator_formal#3| state))) ; \acc_total$D_IN
; yosys-smt2-wire acc_total$D_IN 32
(define-fun |mkAccumulator_formal_n acc_total$D_IN| ((state |mkAccumulator_formal_s|)) (_ BitVec 32) (|mkAccumulator_formal#6| state))
; yosys-smt2-register acc_total 32
; yosys-smt2-wire acc_total 32
(define-fun |mkAccumulator_formal_n acc_total| ((state |mkAccumulator_formal_s|)) (_ BitVec 32) (|mkAccumulator_formal#0| state))
(declare-fun |mkAccumulator_formal#7| (|mkAccumulator_formal_s|) (_ BitVec 1)) ; $past$mkAccumulator_formal.v:119$13$0
; yosys-smt2-register $past$mkAccumulator_formal.v:119$13$0 1
(define-fun |mkAccumulator_formal_n $past$mkAccumulator_formal.v:119$13$0| ((state |mkAccumulator_formal_s|)) Bool (= ((_ extract 0 0) (|mkAccumulator_formal#7| state)) #b1))
(declare-fun |mkAccumulator_formal#8| (|mkAccumulator_formal_s|) (_ BitVec 1)) ; $past$mkAccumulator_formal.v:114$10$0
; yosys-smt2-register $past$mkAccumulator_formal.v:114$10$0 1
(define-fun |mkAccumulator_formal_n $past$mkAccumulator_formal.v:114$10$0| ((state |mkAccumulator_formal_s|)) Bool (= ((_ extract 0 0) (|mkAccumulator_formal#8| state)) #b1))
(declare-fun |mkAccumulator_formal#9| (|mkAccumulator_formal_s|) (_ BitVec 32)) ; $past$mkAccumulator_formal.v:113$9$0
; yosys-smt2-register $past$mkAccumulator_formal.v:113$9$0 32
(define-fun |mkAccumulator_formal_n $past$mkAccumulator_formal.v:113$9$0| ((state |mkAccumulator_formal_s|)) (_ BitVec 32) (|mkAccumulator_formal#9| state))
(declare-fun |mkAccumulator_formal#10| (|mkAccumulator_formal_s|) (_ BitVec 1)) ; $past$mkAccumulator_formal.v:112$7$0
; yosys-smt2-register $past$mkAccumulator_formal.v:112$7$0 1
(define-fun |mkAccumulator_formal_n $past$mkAccumulator_formal.v:112$7$0| ((state |mkAccumulator_formal_s|)) Bool (= ((_ extract 0 0) (|mkAccumulator_formal#10| state)) #b1))
(declare-fun |mkAccumulator_formal#11| (|mkAccumulator_formal_s|) (_ BitVec 1)) ; $past$mkAccumulator_formal.v:110$6$0
; yosys-smt2-register $past$mkAccumulator_formal.v:110$6$0 1
(define-fun |mkAccumulator_formal_n $past$mkAccumulator_formal.v:110$6$0| ((state |mkAccumulator_formal_s|)) Bool (= ((_ extract 0 0) (|mkAccumulator_formal#11| state)) #b1))
(declare-fun |mkAccumulator_formal#12| (|mkAccumulator_formal_s|) (_ BitVec 32)) ; $past$mkAccumulator_formal.v:107$3$0
; yosys-smt2-register $past$mkAccumulator_formal.v:107$3$0 32
(define-fun |mkAccumulator_formal_n $past$mkAccumulator_formal.v:107$3$0| ((state |mkAccumulator_formal_s|)) (_ BitVec 32) (|mkAccumulator_formal#12| state))
(declare-fun |mkAccumulator_formal#13| (|mkAccumulator_formal_s|) (_ BitVec 1)) ; $formal$mkAccumulator_formal.v:114$22_EN
; yosys-smt2-register $formal$mkAccumulator_formal.v:114$22_EN 1
(define-fun |mkAccumulator_formal_n $formal$mkAccumulator_formal.v:114$22_EN| ((state |mkAccumulator_formal_s|)) Bool (= ((_ extract 0 0) (|mkAccumulator_formal#13| state)) #b1))
(declare-fun |mkAccumulator_formal#14| (|mkAccumulator_formal_s|) (_ BitVec 1)) ; $formal$mkAccumulator_formal.v:114$22_CHECK
; yosys-smt2-register $formal$mkAccumulator_formal.v:114$22_CHECK 1
(define-fun |mkAccumulator_formal_n $formal$mkAccumulator_formal.v:114$22_CHECK| ((state |mkAccumulator_formal_s|)) Bool (= ((_ extract 0 0) (|mkAccumulator_formal#14| state)) #b1))
(declare-fun |mkAccumulator_formal#15| (|mkAccumulator_formal_s|) (_ BitVec 1)) ; $formal$mkAccumulator_formal.v:112$21_EN
; yosys-smt2-register $formal$mkAccumulator_formal.v:112$21_EN 1
(define-fun |mkAccumulator_formal_n $formal$mkAccumulator_formal.v:112$21_EN| ((state |mkAccumulator_formal_s|)) Bool (= ((_ extract 0 0) (|mkAccumulator_formal#15| state)) #b1))
(declare-fun |mkAccumulator_formal#16| (|mkAccumulator_formal_s|) (_ BitVec 1)) ; $formal$mkAccumulator_formal.v:112$21_CHECK
; yosys-smt2-register $formal$mkAccumulator_formal.v:112$21_CHECK 1
(define-fun |mkAccumulator_formal_n $formal$mkAccumulator_formal.v:112$21_CHECK| ((state |mkAccumulator_formal_s|)) Bool (= ((_ extract 0 0) (|mkAccumulator_formal#16| state)) #b1))
(declare-fun |mkAccumulator_formal#17| (|mkAccumulator_formal_s|) (_ BitVec 1)) ; $formal$mkAccumulator_formal.v:110$20_EN
; yosys-smt2-register $formal$mkAccumulator_formal.v:110$20_EN 1
(define-fun |mkAccumulator_formal_n $formal$mkAccumulator_formal.v:110$20_EN| ((state |mkAccumulator_formal_s|)) Bool (= ((_ extract 0 0) (|mkAccumulator_formal#17| state)) #b1))
(declare-fun |mkAccumulator_formal#18| (|mkAccumulator_formal_s|) (_ BitVec 1)) ; $formal$mkAccumulator_formal.v:110$20_CHECK
; yosys-smt2-register $formal$mkAccumulator_formal.v:110$20_CHECK 1
(define-fun |mkAccumulator_formal_n $formal$mkAccumulator_formal.v:110$20_CHECK| ((state |mkAccumulator_formal_s|)) Bool (= ((_ extract 0 0) (|mkAccumulator_formal#18| state)) #b1))
(declare-fun |mkAccumulator_formal#19| (|mkAccumulator_formal_s|) (_ BitVec 1)) ; $and$mkAccumulator_formal.v:0$66_Y
; yosys-smt2-register $and$mkAccumulator_formal.v:0$66_Y 1
(define-fun |mkAccumulator_formal_n $and$mkAccumulator_formal.v:0$66_Y| ((state |mkAccumulator_formal_s|)) Bool (= ((_ extract 0 0) (|mkAccumulator_formal#19| state)) #b1))
(declare-fun |mkAccumulator_formal#20| (|mkAccumulator_formal_s|) Bool) ; $formal$mkAccumulator_formal.v:118$23_EN
(declare-fun |mkAccumulator_formal#21| (|mkAccumulator_formal_s|) Bool) ; $formal$mkAccumulator_formal.v:106$17_EN
(define-fun |mkAccumulator_formal#22| ((state |mkAccumulator_formal_s|)) Bool (= (|mkAccumulator_formal#9| state) (|mkAccumulator_formal#3| state))) ; $eq$mkAccumulator_formal.v:121$92_Y
; yosys-smt2-anyseq mkAccumulator_formal#23 1 $auto$setundef.cc:501:execute$245
(declare-fun |mkAccumulator_formal#23| (|mkAccumulator_formal_s|) (_ BitVec 1)) ; $auto$rtlil.cc:2811:Anyseq$246
(define-fun |mkAccumulator_formal#24| ((state |mkAccumulator_formal_s|)) Bool (not (or  (= ((_ extract 0 0) (|mkAccumulator_formal#19| state)) #b1) false false false false false false false false false false false false false false false false false false false false false false false false false false false false false false false))) ; $logic_not$mkAccumulator_formal.v:0$67_Y
(define-fun |mkAccumulator_formal#25| ((state |mkAccumulator_formal_s|)) Bool (and (or  (|mkAccumulator_formal#24| state) false) (or  (|mkAccumulator_formal#4| state) false false false false false false false false false false false false false false false false false false false false false false false false false false false false false false false))) ; $logic_and$mkAccumulator_formal.v:105$69_Y
(define-fun |mkAccumulator_formal#26| ((state |mkAccumulator_formal_s|)) (_ BitVec 1) (ite (|mkAccumulator_formal#25| state) (|mkAccumulator_formal#23| state) (ite (|mkAccumulator_formal#22| state) #b1 #b0))) ; $0$formal$mkAccumulator_formal.v:120$25_CHECK[0:0]$63
(define-fun |mkAccumulator_formal#27| ((state |mkAccumulator_formal_s|)) (_ BitVec 1) (ite (|mkAccumulator_formal#25| state) #b0 #b1)) ; $0$formal$mkAccumulator_formal.v:118$23_EN[0:0]$60
; yosys-smt2-assume 0 mkAccumulator_formal.v:120.30-121.29
(define-fun |mkAccumulator_formal_u 0| ((state |mkAccumulator_formal_s|)) Bool (or (= ((_ extract 0 0) (|mkAccumulator_formal#26| state)) #b1) (not (= ((_ extract 0 0) (|mkAccumulator_formal#27| state)) #b1)))) ; $assume$mkAccumulator_formal.v:120$105
(define-fun |mkAccumulator_formal#28| ((state |mkAccumulator_formal_s|)) Bool (= (|mkAccumulator_formal#11| state) (ite (|mkAccumulator_formal#1| state) #b1 #b0))) ; $eq$mkAccumulator_formal.v:120$91_Y
; yosys-smt2-anyseq mkAccumulator_formal#29 1 $auto$setundef.cc:501:execute$243
(declare-fun |mkAccumulator_formal#29| (|mkAccumulator_formal_s|) (_ BitVec 1)) ; $auto$rtlil.cc:2811:Anyseq$244
(define-fun |mkAccumulator_formal#30| ((state |mkAccumulator_formal_s|)) (_ BitVec 1) (ite (|mkAccumulator_formal#25| state) (|mkAccumulator_formal#29| state) (ite (|mkAccumulator_formal#28| state) #b1 #b0))) ; $0$formal$mkAccumulator_formal.v:119$24_CHECK[0:0]$61
; yosys-smt2-assume 1 mkAccumulator_formal.v:119.29-120.29
(define-fun |mkAccumulator_formal_u 1| ((state |mkAccumulator_formal_s|)) Bool (or (= ((_ extract 0 0) (|mkAccumulator_formal#30| state)) #b1) (not (= ((_ extract 0 0) (|mkAccumulator_formal#27| state)) #b1)))) ; $assume$mkAccumulator_formal.v:119$104
(define-fun |mkAccumulator_formal#31| ((state |mkAccumulator_formal_s|)) Bool (= (|mkAccumulator_formal#7| state) (ite (|mkAccumulator_formal#2| state) #b1 #b0))) ; $eq$mkAccumulator_formal.v:119$90_Y
; yosys-smt2-anyseq mkAccumulator_formal#32 1 $auto$setundef.cc:501:execute$241
(declare-fun |mkAccumulator_formal#32| (|mkAccumulator_formal_s|) (_ BitVec 1)) ; $auto$rtlil.cc:2811:Anyseq$242
(define-fun |mkAccumulator_formal#33| ((state |mkAccumulator_formal_s|)) (_ BitVec 1) (ite (|mkAccumulator_formal#25| state) (|mkAccumulator_formal#32| state) (ite (|mkAccumulator_formal#31| state) #b1 #b0))) ; $0$formal$mkAccumulator_formal.v:118$23_CHECK[0:0]$59
; yosys-smt2-assume 2 mkAccumulator_formal.v:118.7-119.28
(define-fun |mkAccumulator_formal_u 2| ((state |mkAccumulator_formal_s|)) Bool (or (= ((_ extract 0 0) (|mkAccumulator_formal#33| state)) #b1) (not (= ((_ extract 0 0) (|mkAccumulator_formal#27| state)) #b1)))) ; $assume$mkAccumulator_formal.v:118$103
(define-fun |mkAccumulator_formal#34| ((state |mkAccumulator_formal_s|)) Bool (distinct (|mkAccumulator_formal#19| state) (ite (|mkAccumulator_formal#4| state) #b1 #b0))) ; $0$formal$mkAccumulator_formal.v:103$16_CHECK[0:0]$45
; yosys-smt2-assume 3 mkAccumulator_formal.v:103.20-104.25
(define-fun |mkAccumulator_formal_u 3| ((state |mkAccumulator_formal_s|)) Bool (or (|mkAccumulator_formal#34| state) (not true))) ; $assume$mkAccumulator_formal.v:103$96
; yosys-smt2-assert 0 mkAccumulator_formal.v:114.41-115.26
(define-fun |mkAccumulator_formal_a 0| ((state |mkAccumulator_formal_s|)) Bool (or (= ((_ extract 0 0) (|mkAccumulator_formal#14| state)) #b1) (not (= ((_ extract 0 0) (|mkAccumulator_formal#13| state)) #b1)))) ; $assert$mkAccumulator_formal.v:114$102
; yosys-smt2-assert 1 mkAccumulator_formal.v:112.35-113.52
(define-fun |mkAccumulator_formal_a 1| ((state |mkAccumulator_formal_s|)) Bool (or (= ((_ extract 0 0) (|mkAccumulator_formal#16| state)) #b1) (not (= ((_ extract 0 0) (|mkAccumulator_formal#15| state)) #b1)))) ; $assert$mkAccumulator_formal.v:112$101
; yosys-smt2-assert 2 mkAccumulator_formal.v:110.28-111.22
(define-fun |mkAccumulator_formal_a 2| ((state |mkAccumulator_formal_s|)) Bool (or (= ((_ extract 0 0) (|mkAccumulator_formal#18| state)) #b1) (not (= ((_ extract 0 0) (|mkAccumulator_formal#17| state)) #b1)))) ; $assert$mkAccumulator_formal.v:110$100
; yosys-smt2-anyseq mkAccumulator_formal#35 1 $auto$setundef.cc:501:execute$229
(declare-fun |mkAccumulator_formal#35| (|mkAccumulator_formal_s|) (_ BitVec 1)) ; $auto$rtlil.cc:2811:Anyseq$230
(define-fun |mkAccumulator_formal#36| ((state |mkAccumulator_formal_s|)) Bool (not (or  (= ((_ extract 0 0) (|mkAccumulator_formal#0| state)) #b1) (= ((_ extract 1 1) (|mkAccumulator_formal#0| state)) #b1) (= ((_ extract 2 2) (|mkAccumulator_formal#0| state)) #b1) (= ((_ extract 3 3) (|mkAccumulator_formal#0| state)) #b1) (= ((_ extract 4 4) (|mkAccumulator_formal#0| state)) #b1) (= ((_ extract 5 5) (|mkAccumulator_formal#0| state)) #b1) (= ((_ extract 6 6) (|mkAccumulator_formal#0| state)) #b1) (= ((_ extract 7 7) (|mkAccumulator_formal#0| state)) #b1) (= ((_ extract 8 8) (|mkAccumulator_formal#0| state)) #b1) (= ((_ extract 9 9) (|mkAccumulator_formal#0| state)) #b1) (= ((_ extract 10 10) (|mkAccumulator_formal#0| state)) #b1) (= ((_ extract 11 11) (|mkAccumulator_formal#0| state)) #b1) (= ((_ extract 12 12) (|mkAccumulator_formal#0| state)) #b1) (= ((_ extract 13 13) (|mkAccumulator_formal#0| state)) #b1) (= ((_ extract 14 14) (|mkAccumulator_formal#0| state)) #b1) (= ((_ extract 15 15) (|mkAccumulator_formal#0| state)) #b1) (= ((_ extract 16 16) (|mkAccumulator_formal#0| state)) #b1) (= ((_ extract 17 17) (|mkAccumulator_formal#0| state)) #b1) (= ((_ extract 18 18) (|mkAccumulator_formal#0| state)) #b1) (= ((_ extract 19 19) (|mkAccumulator_formal#0| state)) #b1) (= ((_ extract 20 20) (|mkAccumulator_formal#0| state)) #b1) (= ((_ extract 21 21) (|mkAccumulator_formal#0| state)) #b1) (= ((_ extract 22 22) (|mkAccumulator_formal#0| state)) #b1) (= ((_ extract 23 23) (|mkAccumulator_formal#0| state)) #b1) (= ((_ extract 24 24) (|mkAccumulator_formal#0| state)) #b1) (= ((_ extract 25 25) (|mkAccumulator_formal#0| state)) #b1) (= ((_ extract 26 26) (|mkAccumulator_formal#0| state)) #b1) (= ((_ extract 27 27) (|mkAccumulator_formal#0| state)) #b1) (= ((_ extract 28 28) (|mkAccumulator_formal#0| state)) #b1) (= ((_ extract 29 29) (|mkAccumulator_formal#0| state)) #b1) (= ((_ extract 30 30) (|mkAccumulator_formal#0| state)) #b1) (= ((_ extract 31 31) (|mkAccumulator_formal#0| state)) #b1)))) ; $eq$mkAccumulator_formal.v:109$78_Y
; yosys-smt2-anyseq mkAccumulator_formal#37 1 $auto$setundef.cc:501:execute$227
(declare-fun |mkAccumulator_formal#37| (|mkAccumulator_formal_s|) (_ BitVec 1)) ; $auto$rtlil.cc:2811:Anyseq$228
(define-fun |mkAccumulator_formal#38| ((state |mkAccumulator_formal_s|)) (_ BitVec 1) (ite (= ((_ extract 0 0) (|mkAccumulator_formal#11| state)) #b1) (|mkAccumulator_formal#37| state) (ite (|mkAccumulator_formal#36| state) #b1 #b0))) ; $procmux$143_Y
(define-fun |mkAccumulator_formal#39| ((state |mkAccumulator_formal_s|)) Bool (and (or  (|mkAccumulator_formal#25| state) false) (or  (= ((_ extract 0 0) (|mkAccumulator_formal#5| state)) #b1) false))) ; $logic_and$mkAccumulator_formal.v:105$70_Y
(define-fun |mkAccumulator_formal#40| ((state |mkAccumulator_formal_s|)) (_ BitVec 1) (ite (|mkAccumulator_formal#39| state) (|mkAccumulator_formal#38| state) (|mkAccumulator_formal#35| state))) ; $0$formal$mkAccumulator_formal.v:110$20_CHECK[0:0]$53
(define-fun |mkAccumulator_formal#41| ((state |mkAccumulator_formal_s|)) (_ BitVec 1) (ite (= ((_ extract 0 0) (|mkAccumulator_formal#11| state)) #b1) #b0 #b1)) ; $procmux$139_Y
(define-fun |mkAccumulator_formal#42| ((state |mkAccumulator_formal_s|)) (_ BitVec 1) (ite (|mkAccumulator_formal#39| state) (|mkAccumulator_formal#41| state) #b0)) ; $auto$rtlil.cc:2218:Mux$261
; yosys-smt2-anyseq mkAccumulator_formal#43 1 $auto$setundef.cc:501:execute$233
(declare-fun |mkAccumulator_formal#43| (|mkAccumulator_formal_s|) (_ BitVec 1)) ; $auto$rtlil.cc:2811:Anyseq$234
; yosys-smt2-anyseq mkAccumulator_formal#44 1 $auto$setundef.cc:501:execute$231
(declare-fun |mkAccumulator_formal#44| (|mkAccumulator_formal_s|) (_ BitVec 1)) ; $auto$rtlil.cc:2811:Anyseq$232
(define-fun |mkAccumulator_formal#45| ((state |mkAccumulator_formal_s|)) (_ BitVec 32) (bvadd (|mkAccumulator_formal#12| state) (|mkAccumulator_formal#9| state))) ; $add$mkAccumulator_formal.v:113$82_Y
(define-fun |mkAccumulator_formal#46| ((state |mkAccumulator_formal_s|)) Bool (= (|mkAccumulator_formal#0| state) (|mkAccumulator_formal#45| state))) ; $eq$mkAccumulator_formal.v:113$83_Y
(define-fun |mkAccumulator_formal#47| ((state |mkAccumulator_formal_s|)) (_ BitVec 1) (ite (= ((_ extract 0 0) (|mkAccumulator_formal#10| state)) #b1) (ite (|mkAccumulator_formal#46| state) #b1 #b0) (|mkAccumulator_formal#44| state))) ; $procmux$153_Y
(define-fun |mkAccumulator_formal#48| ((state |mkAccumulator_formal_s|)) (_ BitVec 1) (ite (|mkAccumulator_formal#39| state) (|mkAccumulator_formal#47| state) (|mkAccumulator_formal#43| state))) ; $0$formal$mkAccumulator_formal.v:112$21_CHECK[0:0]$55
(define-fun |mkAccumulator_formal#49| ((state |mkAccumulator_formal_s|)) (_ BitVec 1) (ite (= ((_ extract 0 0) (|mkAccumulator_formal#10| state)) #b1) #b1 #b0)) ; $procmux$148_Y
(define-fun |mkAccumulator_formal#50| ((state |mkAccumulator_formal_s|)) (_ BitVec 1) (ite (|mkAccumulator_formal#39| state) (|mkAccumulator_formal#49| state) #b0)) ; $auto$rtlil.cc:2218:Mux$263
; yosys-smt2-anyseq mkAccumulator_formal#51 1 $auto$setundef.cc:501:execute$239
(declare-fun |mkAccumulator_formal#51| (|mkAccumulator_formal_s|) (_ BitVec 1)) ; $auto$rtlil.cc:2811:Anyseq$240
; yosys-smt2-anyseq mkAccumulator_formal#52 1 $auto$setundef.cc:501:execute$235
(declare-fun |mkAccumulator_formal#52| (|mkAccumulator_formal_s|) (_ BitVec 1)) ; $auto$rtlil.cc:2811:Anyseq$236
(define-fun |mkAccumulator_formal#53| ((state |mkAccumulator_formal_s|)) Bool (= (|mkAccumulator_formal#12| state) (|mkAccumulator_formal#0| state))) ; $eq$mkAccumulator_formal.v:115$84_Y
(define-fun |mkAccumulator_formal#54| ((state |mkAccumulator_formal_s|)) (_ BitVec 1) (ite (= ((_ extract 0 0) (|mkAccumulator_formal#8| state)) #b1) (ite (|mkAccumulator_formal#53| state) #b1 #b0) (|mkAccumulator_formal#52| state))) ; $procmux$164_Y
; yosys-smt2-anyseq mkAccumulator_formal#55 1 $auto$setundef.cc:501:execute$237
(declare-fun |mkAccumulator_formal#55| (|mkAccumulator_formal_s|) (_ BitVec 1)) ; $auto$rtlil.cc:2811:Anyseq$238
(define-fun |mkAccumulator_formal#56| ((state |mkAccumulator_formal_s|)) (_ BitVec 1) (ite (= ((_ extract 0 0) (|mkAccumulator_formal#10| state)) #b1) (|mkAccumulator_formal#55| state) (|mkAccumulator_formal#54| state))) ; $procmux$167_Y
(define-fun |mkAccumulator_formal#57| ((state |mkAccumulator_formal_s|)) (_ BitVec 1) (ite (|mkAccumulator_formal#39| state) (|mkAccumulator_formal#56| state) (|mkAccumulator_formal#51| state))) ; $0$formal$mkAccumulator_formal.v:114$22_CHECK[0:0]$57
(define-fun |mkAccumulator_formal#58| ((state |mkAccumulator_formal_s|)) (_ BitVec 1) (ite (= ((_ extract 0 0) (|mkAccumulator_formal#8| state)) #b1) #b1 #b0)) ; $procmux$157_Y
(define-fun |mkAccumulator_formal#59| ((state |mkAccumulator_formal_s|)) (_ BitVec 1) (bvnot (ite (|mkAccumulator_formal#39| state) #b1 #b0))) ; $auto$rtlil.cc:2121:Not$250
(define-fun |mkAccumulator_formal#60| ((state |mkAccumulator_formal_s|)) Bool (or  (= ((_ extract 0 0) (|mkAccumulator_formal#10| state)) #b1) (= ((_ extract 0 0) (|mkAccumulator_formal#59| state)) #b1))) ; $auto$opt_dff.cc:276:combine_resets$251
(define-fun |mkAccumulator_formal#61| ((state |mkAccumulator_formal_s|)) (_ BitVec 1) (ite (|mkAccumulator_formal#60| state) #b0 (|mkAccumulator_formal#58| state))) ; $auto$rtlil.cc:2218:Mux$265
(define-fun |mkAccumulator_formal#62| ((state |mkAccumulator_formal_s|)) Bool (and (or  (|mkAccumulator_formal#2| state) false) (or  (|mkAccumulator_formal#1| state) false))) ; $0$past$mkAccumulator_formal.v:112$7$0[0:0]$36
(define-fun |mkAccumulator_formal#63| ((state |mkAccumulator_formal_s|)) Bool (not (or  (|mkAccumulator_formal#2| state) false))) ; $logic_not$mkAccumulator_formal.v:114$94_Y
(define-fun |mkAccumulator_formal#64| ((state |mkAccumulator_formal_s|)) Bool (and (or  (|mkAccumulator_formal#63| state) false) (or  (|mkAccumulator_formal#1| state) false))) ; $0$past$mkAccumulator_formal.v:114$10$0[0:0]$39
(define-fun |mkAccumulator_formal#65| ((state |mkAccumulator_formal_s|)) (_ BitVec 32) (ite (|mkAccumulator_formal#2| state) (|mkAccumulator_formal#6| state) (|mkAccumulator_formal#0| state))) ; $auto$rtlil.cc:2218:Mux$257
(define-fun |mkAccumulator_formal#66| ((state |mkAccumulator_formal_s|)) (_ BitVec 32) (ite (|mkAccumulator_formal#1| state) (|mkAccumulator_formal#65| state) #b00000000000000000000000000000000)) ; $auto$rtlil.cc:2218:Mux$259
(define-fun |mkAccumulator_formal_a| ((state |mkAccumulator_formal_s|)) Bool (and
  (|mkAccumulator_formal_a 0| state)
  (|mkAccumulator_formal_a 1| state)
  (|mkAccumulator_formal_a 2| state)
))
(define-fun |mkAccumulator_formal_u| ((state |mkAccumulator_formal_s|)) Bool (and
  (|mkAccumulator_formal_u 0| state)
  (|mkAccumulator_formal_u 1| state)
  (|mkAccumulator_formal_u 2| state)
  (|mkAccumulator_formal_u 3| state)
))
(define-fun |mkAccumulator_formal_i| ((state |mkAccumulator_formal_s|)) Bool (and
  (= (= ((_ extract 0 0) (|mkAccumulator_formal#5| state)) #b1) false) ; f_past_valid
  (= (|mkAccumulator_formal#20| state) false) ; $formal$mkAccumulator_formal.v:118$23_EN
  (= (= ((_ extract 0 0) (|mkAccumulator_formal#13| state)) #b1) false) ; $formal$mkAccumulator_formal.v:114$22_EN
  (= (= ((_ extract 0 0) (|mkAccumulator_formal#15| state)) #b1) false) ; $formal$mkAccumulator_formal.v:112$21_EN
  (= (= ((_ extract 0 0) (|mkAccumulator_formal#17| state)) #b1) false) ; $formal$mkAccumulator_formal.v:110$20_EN
  (= (|mkAccumulator_formal#21| state) false) ; $formal$mkAccumulator_formal.v:106$17_EN
))
(define-fun |mkAccumulator_formal_h| ((state |mkAccumulator_formal_s|)) Bool true)
(define-fun |mkAccumulator_formal_t| ((state |mkAccumulator_formal_s|) (next_state |mkAccumulator_formal_s|)) Bool (and
  (= (ite (|mkAccumulator_formal#4| state) #b1 #b0) (|mkAccumulator_formal#19| next_state)) ; $procdff$189 $and$mkAccumulator_formal.v:0$66_Y
  (= (|mkAccumulator_formal#40| state) (|mkAccumulator_formal#18| next_state)) ; $procdff$212 $formal$mkAccumulator_formal.v:110$20_CHECK
  (= (|mkAccumulator_formal#42| state) (|mkAccumulator_formal#17| next_state)) ; $auto$opt_dff.cc:702:run$255 $formal$mkAccumulator_formal.v:110$20_EN
  (= (|mkAccumulator_formal#48| state) (|mkAccumulator_formal#16| next_state)) ; $procdff$214 $formal$mkAccumulator_formal.v:112$21_CHECK
  (= (|mkAccumulator_formal#50| state) (|mkAccumulator_formal#15| next_state)) ; $auto$opt_dff.cc:702:run$254 $formal$mkAccumulator_formal.v:112$21_EN
  (= (|mkAccumulator_formal#57| state) (|mkAccumulator_formal#14| next_state)) ; $procdff$216 $formal$mkAccumulator_formal.v:114$22_CHECK
  (= (|mkAccumulator_formal#61| state) (|mkAccumulator_formal#13| next_state)) ; $auto$opt_dff.cc:702:run$253 $formal$mkAccumulator_formal.v:114$22_EN
  (= (|mkAccumulator_formal#0| state) (|mkAccumulator_formal#12| next_state)) ; $procdff$191 $past$mkAccumulator_formal.v:107$3$0
  (= (ite (|mkAccumulator_formal#1| state) #b1 #b0) (|mkAccumulator_formal#11| next_state)) ; $procdff$194 $past$mkAccumulator_formal.v:110$6$0
  (= (ite (|mkAccumulator_formal#62| state) #b1 #b0) (|mkAccumulator_formal#10| next_state)) ; $procdff$195 $past$mkAccumulator_formal.v:112$7$0
  (= (|mkAccumulator_formal#3| state) (|mkAccumulator_formal#9| next_state)) ; $procdff$197 $past$mkAccumulator_formal.v:113$9$0
  (= (ite (|mkAccumulator_formal#64| state) #b1 #b0) (|mkAccumulator_formal#8| next_state)) ; $procdff$198 $past$mkAccumulator_formal.v:114$10$0
  (= (ite (|mkAccumulator_formal#2| state) #b1 #b0) (|mkAccumulator_formal#7| next_state)) ; $procdff$201 $past$mkAccumulator_formal.v:119$13$0
  (= #b1 (|mkAccumulator_formal#5| next_state)) ; $procdff$188 \f_past_valid
  (= (|mkAccumulator_formal#66| state) (|mkAccumulator_formal#0| next_state)) ; $auto$opt_dff.cc:764:run$248 \acc_total
)) ; end of module mkAccumulator_formal
; yosys-smt2-topmod mkAccumulator_formal
; end of yosys output
